
  32    4
  10   10   10   10

   0   0   0   0   0   7 2 5 7 8 10 15 16 
   1  10  10  10  10   2 30 3 
   4  10  10  10  10   3 19 14 4 
   5  10  10  10  10   2 21 6 
   8  10  10  10  10   4 31 22 21 11 
   4  10  10  10  10   2 22 9 
   3  10  10  10  10   5 29 27 22 14 13 
   2  10  10  10  10   2 21 12 
   2  10  10  10  10   1 11 
   8  10  10  10  10   1 11 
   6  10  10  10  10   1 12 
   5  10  10  10  10   3 29 27 13 
   9  10  10  10  10   4 28 26 25 17 
   4  10  10  10  10   4 25 24 21 18 
   1  10  10  10  10   4 25 24 21 18 
   2  10  10  10  10   4 27 25 24 18 
   7  10  10  10  10   2 24 18 
   4  10  10  10  10   1 20 
   4  10  10  10  10   1 22 
   1  10  10  10  10   1 23 
   6  10  10  10  10   1 26 
   8  10  10  10  10   1 23 
   5  10  10  10  10   1 32
   1  10  10  10  10   1 32
   2  10  10  10  10   1 32
   7  10  10  10  10   1 32
   9  10  10  10  10   1 32
   4  10  10  10  10   1 32
  10  10  10  10  10   1 32
   7  10  10  10  10   1 32
   5  10  10  10  10   1 32
   0   0   0   0   0   0 
